4 
5  07 23 38 53 
6  08 20 26 32 37 41 47 52 57 
7  02 07 12 17 22 27 32 37 42 47 52 57 
8  02 07 12 17 22 27 32 37 42 47 52 57 
9  02 07 12 17 22 28 33 38 45 53 
10  00 08 15 23 31 38 46 53 
11  01 08 16 23 31 38 46 53 
12  01 08 16 23 31 38 46 53 
13  01 08 18 25 33 40 48 55 
14  03 10 18 25 33 40 46 50 55 
15  00 05 10 15 20 25 30 35 40 45 50 55 
16  00 05 10 15 20 25 30 35 40 45 50 55 
17  00 05 10 15 20 25 30 35 40 45 50 55 
18  00 05 10 15 20 27 34 42 48 54 59 
19  05 10 13 18 25 32 40 48 55 
20  03 10 17 25 33 45 
21  00 15 30 45 
22  00 15 30 45 
23  00 15 29 
0 
